
  22   10
  10   10   10   10   10   10   10   10   10   10

   0   0   0   0   0   0   0   0   0   0   0   2 2 4 
   7   0   0   0   0   0  10   0   0   0   0   1 3 
   5   0   0  10   0   0   0   0   0   0   0   2 8 5 
  10   0  10   0   0   0   0   0   0   0   0   2 8 5 
   7   0   0   0  10   0   0   0   0   0   0   2 11 6 
   6   0   0   0  10   0   0   0   0   0   0   1 7 
   1   0   0   0   0   0  10   0   0   0   0   1 9 
   8   0   0  10   0   0   0   0   0   0   0   1 9 
   2   0   0   0   0   0   0  10   0   0   0   1 10 
   6   0   0   0  10   0   0   0   0   0   0   2 13 12 
   8   0   0   0   0   0   0   0   0  10   0   1 12 
   3   0   0   0   0   0   0   0   0  10   0   2 19 14 
  10   0   0   0  10   0   0   0   0   0   0   2 19 15 
   5  10   0   0   0   0   0   0   0   0   0   1 15 
   2   0   0   0   0   0   0   0  10   0   0   1 16 
   8  10   0   0   0   0   0   0   0   0   0   1 17 
   4   0   0   0  10   0   0   0   0   0   0   1 18 
   1   0   0   0   0   0   0   0  10   0   0   2 21 20 
   1   0   0   0   0   0   0   0   0   0  10   1 20 
   9   0  10   0   0   0   0   0   0   0   0   1 22
   7   0   0   0   0   0   0   0   0  10   0   1 22
   0   0   0   0   0   0   0   0   0   0   0   0 
